# input as lammps1.in -v nnacl 9 -v nfunc 16 -v functional OH -v trial 1

variable        dt  equal 1.0 # units fs
variable        T  equal  300 # units K
variable        Tdamp  equal 100*${dt} # units K
variable        nsteps  equal  500000 # number of simulation stepsi
variable	equil_steps equal 100000
variable        thermo_freq equal 1000
variable        dump_freq equal 1000
variable        nwater equal 500
variable        nc_per_graphene equal 364 # number of carbons per graphene sheet
variable	home string "/home/fs01/lth26/Projects/graphene_sandwich_project/automation_run" # where lammps1_files directory is  located


units           real
atom_style      full
boundary        p p p

variable	water_file string "${home}/${functional}/water_input/water_500_${nnacl}nacl.data"
variable	graphene_file string "${home}/${functional}/graphene_input_${functional}_${trial}/graphene_${nfunc}${functional}_${trial}.data"
read_data       ${water_file}
read_data       ${graphene_file} add append offset 4 0 0 0 0

variable	functional_masses_charges string "${home}/${functional}/${functional}_masses_charges.txt"
include		${functional_masses_charges}

neighbor        2.0 bin
neigh_modify    every 15 delay 0 check yes

pair_style      lj/cut/coul/long 10 10
pair_modify     tail yes
kspace_style    pppm 1.0e-5

variable	functional_FF string "${home}/${functional}/${functional}_FF.txt"
include		${functional_FF}

pair_modify mix arithmetic

bond_style   harmonic
angle_style  harmonic

bond_coeff      1  5000 1.0
angle_coeff     1  500 109.47

# -- Groups --
variable	begin_water equal 1
variable        end_water equal 3*${nwater}+2*${nnacl}
variable        begin_wall1 equal ${end_water}+1
variable        end_wall1 equal ${end_water}+${nc_per_graphene}+${size_func}*${nfunc}
variable        begin_wall2 equal ${end_wall1}+1
variable        end_wall2 equal ${end_wall1}+${nc_per_graphene}+${size_func}*${nfunc}

variable	begin_wall1_c equal ${begin_wall1}
variable        end_wall1_c equal ${begin_wall1}+${nc_per_graphene}-1
variable        begin_wall2_c equal ${begin_wall2}
variable	end_wall2_c equal ${begin_wall2}+${nc_per_graphene}-1
variable        begin_wall1_f equal ${end_wall1_c}+1
variable	end_wall1_f equal ${end_wall1}
variable	begin_wall2_f equal ${end_wall2_c}+1
variable        end_wall2_f equal ${end_wall2}

group           water id ${begin_water}:${end_water}
group           wall1 id ${begin_wall1}:${end_wall1}
group           wall2 id ${begin_wall2}:${end_wall2}

group           wall1_c id ${begin_wall1_c}:${end_wall1_c}
group           wall2_c id ${begin_wall2_c}:${end_wall2_c}

group           wall1_f id ${begin_wall1_f}:${end_wall1_f} # functionals
group           wall2_f id ${begin_wall2_f}:${end_wall2_f}


velocity        water create ${T} 2389273 rot yes dist gaussian # change seed for UNFUNC trials to ensure independent
velocity        all zero linear
velocity        all zero angular

# -- fix --
#fz = pressure 0.5 atm * 1.458e-5 kcal/mol/A^3 is 1 atm * surface area 950.76988 A^2 / 364 C atoms of graphene wall 
variable       fz equal 1.9*10^-5  # kcal/mol/A
fix            piston1xy wall1_c setforce 0.0 0.0 NULL
fix            piston1z wall1_c aveforce NULL NULL ${fz}
fix            fwall1 wall1 rigid/nve single force * off off on torque * off off off
fix            piston2xy wall2_c setforce 0.0 0.0 NULL
fix            piston2z wall2_c aveforce NULL NULL -${fz}
fix            fwall2 wall2 rigid/nve single force * off off on torque * off off off
# move water
fix             1 water shake 0.0001 20 0 b 1 a 1
fix             2 water nvt temp ${T} ${T} ${Tdamp}
fix             3 water momentum 100 linear 1 1 1 rescale # remove com


# -- equiliberate --
variable	dump_string_equil string "./dump_equil1/dump_equil_${nfunc}${functional}_${nnacl}nacl_trial${trial}.lammpstrj"
dump            1 all custom ${dump_freq} ${dump_string_equil} id mol type x y z
dump_modify     1 append yes sort id format line "%d %d %d %15.8f %15.8f %15.8f"

timestep        1.0
run             ${equil_steps}

undump 1



# -- production --
reset_timestep  0
timestep        ${dt}

# For the lower wall
compute zpos1 wall1_c property/atom z
compute zmax1 wall1_c reduce max c_zpos1
# For the upper wall
compute zpos2 wall2_c property/atom z
compute zmin2 wall2_c reduce min c_zpos2

variable 	gap equal c_zmin2-c_zmax1
variable 	gap_file string "./gap_files/gap_vs_time_${nfunc}${functional}_${nnacl}nacl_trial${trial}.txt" # location of gap_vs_time files
fix gap_out all ave/time 100 1 100 v_gap c_zmin2 c_zmax1 file ${gap_file}

# compute temperature for water group
compute        temp_water water temp

thermo_style    custom step c_temp_water pe ke etotal density vol
thermo          ${thermo_freq}
thermo_modify   flush yes temp temp_water

variable        dump_string_prod string "./dump_prod1/dump_prod_${nfunc}${functional}_${nnacl}nacl_trial${trial}.lammpstrj"
dump            2 all custom ${dump_freq} ${dump_string_prod} id mol type x y z
dump_modify     2 append yes sort id format line "%d %d %d %15.8f %15.8f %15.8f"

run             ${nsteps}

#write_restart   restart_run
